(set-logic HORN)
(set-info :source |
    Benchmark: C_VC
    Output by Princess (http://www.philipp.ruemmer.org/princess.shtml)
|)
(set-info :status sat)
;===============================================================================
; Encoding of Heap sorts and operations
;-------------------------------------------------------------------------------
(define-sort Addr() Int)
(declare-datatypes ((HeapObject 0) (TDLL 0))
                   (((O_Int (getInt Int)) (O_UInt (getUInt Int)) (O_Addr (getAddr Addr)) (O_TDLL (getTDLL TDLL)) (defObj))
                   ((TDLL (next Addr) (prev Addr) (data Int)))))
(declare-datatypes ((AllocResHeap 0) (Heap 0))
                   (((AllocResHeap   (newHeap Heap) (newAddr Addr)))
                    ((HeapCtor (HeapSize Int)
                               (HeapContents (Array Addr HeapObject))))))
(define-fun nullAddr  () Addr 0)
(define-fun valid     ((h Heap) (p Addr)) Bool
  (and (>= (HeapSize h) p) (> p 0)))
(define-fun emptyHeap () Heap (
  HeapCtor 0 (( as const (Array Addr HeapObject)) defObj)))
(define-fun read ((h Heap) (p Addr)) HeapObject
  (ite (valid h p)
       (select (HeapContents h) p)
       defObj))
(define-fun write ((h Heap) (p Addr) (o HeapObject)) Heap
  (ite (valid h p)
       (HeapCtor (HeapSize h) (store (HeapContents h) p o))
       h))
(define-fun alloc   ((h Heap) (o HeapObject)) AllocResHeap
  (AllocResHeap (HeapCtor (+ 1 (HeapSize h))
                    (store (HeapContents h) (+ 1 (HeapSize h)) o))
          (+ 1 (HeapSize h))))

;===============================================================================
(declare-fun inv_main11 (Heap Addr Addr) Bool)
(declare-fun inv_main12 (Heap Addr Addr Addr) Bool)
(declare-fun inv_main13 (Heap Addr Addr) Bool)
(declare-fun inv_main14 (Heap Addr Addr) Bool)
(declare-fun inv_main16 (Heap Addr Addr) Bool)
(declare-fun inv_main17 (Heap Addr Addr) Bool)
(declare-fun inv_main2 (Heap) Bool)
(declare-fun inv_main23 (Heap Addr Addr) Bool)
(declare-fun inv_main25 (Heap Addr Addr) Bool)
(declare-fun inv_main29 (Heap Addr Addr) Bool)
(declare-fun inv_main3 (Heap Addr) Bool)
(declare-fun inv_main31 (Heap Addr Addr) Bool)
(declare-fun inv_main34 (Heap Addr Addr) Bool)
(declare-fun inv_main37 (Heap Addr Addr) Bool)
(declare-fun inv_main39 (Heap Addr Addr) Bool)
(declare-fun inv_main4 (Heap Addr) Bool)
(declare-fun inv_main40 (Heap Addr Addr Addr) Bool)
(declare-fun inv_main41 (Heap Addr Addr) Bool)
(declare-fun inv_main42 (Heap Addr Addr) Bool)
(declare-fun inv_main44 (Heap Addr Addr) Bool)
(declare-fun inv_main48 (Heap Addr Addr Addr) Bool)
(declare-fun inv_main49 (Heap Addr Addr Addr Addr) Bool)
(declare-fun inv_main5 (Heap Addr) Bool)
(declare-fun inv_main50 (Heap Addr Addr Addr Addr) Bool)
(declare-fun inv_main54 (Heap Addr Addr Addr) Bool)
(declare-fun inv_main56 (Heap Addr Addr Addr) Bool)
(declare-fun inv_main60 (Heap Addr Addr Addr Int Int) Bool)
(declare-fun inv_main63 (Heap Addr Addr Addr Int Int) Bool)
(declare-fun inv_main65 (Heap Addr Addr Addr Int Int) Bool)
(declare-fun inv_main68 (Heap Addr Addr Addr Int Int) Bool)
(declare-fun inv_main69 (Heap Addr Addr Addr Int Int) Bool)
(declare-fun inv_main77 (Heap Addr Addr Addr) Bool)
(assert (inv_main2 emptyHeap))
(assert (forall ((var0 Addr) (var1 Addr) (var2 Addr) (var3 Heap) (var4 Addr) (var5 Addr) (var6 Addr) (var7 Addr) (var8 Addr) (var9 Heap)) (or (not (and (inv_main50 var9 var8 var7 var6 var5) (and (not (= var4 nullAddr)) (and (is-O_TDLL (read var9 var7)) (and (and (and (and (= var3 (write var9 var7 (O_TDLL (TDLL (next (getTDLL (read var9 var7))) var5 (data (getTDLL (read var9 var7))))))) (= var2 var8)) (= var1 var7)) (= var0 var6)) (= var4 var5)))))) (inv_main48 var3 var2 var4 var1))))
(assert (forall ((var0 Addr) (var1 Addr) (var2 Addr) (var3 Addr) (var4 Heap) (var5 Heap) (var6 Addr) (var7 Addr) (var8 Addr) (var9 Heap)) (or (not (and (inv_main44 var9 var8 var7) (and (and (and (not (= var6 nullAddr)) (and (and (and (= var5 var4) (= var6 var3)) (= var2 var1)) (= var0 nullAddr))) (is-O_TDLL (read var9 var7))) (and (and (= var4 (write var9 var7 (O_TDLL (TDLL (next (getTDLL (read var9 var7))) (prev (getTDLL (read var9 var7))) 2)))) (= var3 var8)) (= var1 var7))))) (inv_main48 var5 var6 var6 var0))))
(assert (forall ((var0 Addr) (var1 Addr) (var2 Addr) (var3 Addr) (var4 Heap) (var5 Heap) (var6 Addr) (var7 Addr) (var8 Addr) (var9 Heap)) (or (not (and (inv_main37 var9 var8 var7) (and (and (and (not (= var6 nullAddr)) (and (and (and (= var5 var4) (= var6 var3)) (= var2 var1)) (= var0 nullAddr))) (and (is-O_TDLL (read var9 var7)) (is-O_TDLL (read var9 (next (getTDLL (read var9 var7))))))) (and (and (= var4 (write var9 (next (getTDLL (read var9 var7))) (O_TDLL (TDLL (next (getTDLL (read var9 (next (getTDLL (read var9 var7)))))) (prev (getTDLL (read var9 (next (getTDLL (read var9 var7)))))) 2)))) (= var3 var8)) (= var1 var7))))) (inv_main48 var5 var6 var6 var0))))
(assert (forall ((var0 Int) (var1 Int) (var2 Addr) (var3 Addr) (var4 Addr) (var5 Heap) (var6 Int) (var7 Int) (var8 Int) (var9 Addr) (var10 Addr) (var11 Addr) (var12 Heap)) (or (not (and (inv_main63 var12 var11 var10 var9 var8 var7) (and (and (= var6 2) (is-O_TDLL (read var12 var10))) (and (and (and (and (and (and (= var5 var12) (= var4 var11)) (= var3 var10)) (= var2 var9)) (= var1 var8)) (= var0 var7)) (= var6 (data (getTDLL (read var12 var10)))))))) (inv_main69 var5 var4 var3 var2 var1 var0))))
(assert (forall ((var0 Addr) (var1 Addr) (var2 Heap) (var3 Addr) (var4 Addr) (var5 Addr) (var6 Heap)) (or (not (and (inv_main34 var6 var5 var4) (and (and (not (= var3 nullAddr)) (is-O_TDLL (read var6 var4))) (and (and (and (= var2 var6) (= var1 var5)) (= var0 var4)) (= var3 (next (getTDLL (read var6 var4)))))))) (inv_main37 var2 var1 var0))))
(assert (forall ((var0 Addr) (var1 Heap)) (or (not (and (inv_main4 var1 var0) (is-O_TDLL (read var1 var0)))) (inv_main5 (write var1 var0 (O_TDLL (TDLL (next (getTDLL (read var1 var0))) nullAddr (data (getTDLL (read var1 var0)))))) var0))))
(assert (forall ((var0 Addr) (var1 Addr) (var2 Addr) (var3 Heap)) (or (not (and (inv_main48 var3 var2 var1 var0) (is-O_TDLL (read var3 var1)))) (inv_main49 var3 var2 var1 var0 (next (getTDLL (read var3 var1)))))))
(assert (forall ((var0 Addr) (var1 Int) (var2 Int) (var3 Addr) (var4 Addr) (var5 Addr) (var6 Heap) (var7 Int) (var8 Int) (var9 Addr) (var10 Addr) (var11 Addr) (var12 Heap)) (or (not (and (inv_main68 var12 var11 var10 var9 var8 var7) (and (is-O_TDLL (read var12 var10)) (and (and (and (and (and (and (= var6 var12) (= var5 var11)) (= var4 var10)) (= var3 var9)) (= var2 var8)) (= var1 var7)) (= var0 (next (getTDLL (read var12 var10)))))))) (inv_main54 var6 var5 var0 var3))))
(assert (forall ((var0 Addr) (var1 Addr) (var2 Addr) (var3 Heap) (var4 Addr) (var5 Addr) (var6 Addr) (var7 Addr) (var8 Addr) (var9 Heap)) (or (not (and (inv_main50 var9 var8 var7 var6 var5) (and (= var4 nullAddr) (and (is-O_TDLL (read var9 var7)) (and (and (and (and (= var3 (write var9 var7 (O_TDLL (TDLL (next (getTDLL (read var9 var7))) var5 (data (getTDLL (read var9 var7))))))) (= var2 var8)) (= var1 var7)) (= var0 var6)) (= var4 var5)))))) (inv_main54 var3 var1 var1 var1))))
(assert (forall ((var0 Addr) (var1 Addr) (var2 Addr) (var3 Addr) (var4 Heap) (var5 Heap) (var6 Addr) (var7 Addr) (var8 Addr) (var9 Heap)) (or (not (and (inv_main44 var9 var8 var7) (and (and (and (= var6 nullAddr) (and (and (and (= var5 var4) (= var6 var3)) (= var2 var1)) (= var0 nullAddr))) (is-O_TDLL (read var9 var7))) (and (and (= var4 (write var9 var7 (O_TDLL (TDLL (next (getTDLL (read var9 var7))) (prev (getTDLL (read var9 var7))) 2)))) (= var3 var8)) (= var1 var7))))) (inv_main54 var5 var0 var0 var0))))
(assert (forall ((var0 Addr) (var1 Addr) (var2 Addr) (var3 Addr) (var4 Heap) (var5 Heap) (var6 Addr) (var7 Addr) (var8 Addr) (var9 Heap)) (or (not (and (inv_main37 var9 var8 var7) (and (and (and (= var6 nullAddr) (and (and (and (= var5 var4) (= var6 var3)) (= var2 var1)) (= var0 nullAddr))) (and (is-O_TDLL (read var9 var7)) (is-O_TDLL (read var9 (next (getTDLL (read var9 var7))))))) (and (and (= var4 (write var9 (next (getTDLL (read var9 var7))) (O_TDLL (TDLL (next (getTDLL (read var9 (next (getTDLL (read var9 var7)))))) (prev (getTDLL (read var9 (next (getTDLL (read var9 var7)))))) 2)))) (= var3 var8)) (= var1 var7))))) (inv_main54 var5 var0 var0 var0))))
(assert (forall ((var0 Addr) (var1 Addr) (var2 Addr) (var3 Heap)) (or (not (and (inv_main12 var3 var2 var1 var0) (is-O_TDLL (read var3 var1)))) (inv_main11 (write var3 var1 (O_TDLL (TDLL var0 (prev (getTDLL (read var3 var1))) (data (getTDLL (read var3 var1)))))) var2 var1))))
(assert (forall ((var0 Addr) (var1 Addr) (var2 Addr) (var3 Heap)) (or (not (and (inv_main54 var3 var2 var1 var0) (and (not (= var2 nullAddr)) (= var1 nullAddr)))) (inv_main77 var3 var2 var2 var0))))
(assert (forall ((var0 Addr) (var1 Addr) (var2 Heap) (var3 Addr) (var4 Addr) (var5 Addr) (var6 Addr) (var7 Heap) (var8 Addr) (var9 Addr) (var10 Addr) (var11 Addr) (var12 Heap)) (or (not (and (inv_main77 var12 var11 var10 var9) (and (and (not (= var8 nullAddr)) (and (is-O_TDLL (read var12 var10)) (and (and (and (and (= var7 var12) (= var6 var11)) (= var5 var10)) (= var4 var9)) (= var3 (next (getTDLL (read var12 var10))))))) (and (and (and (= var2 (write var7 var6 defObj)) (= var1 var6)) (= var8 var3)) (= var0 var4))))) (inv_main77 var2 var8 var8 var0))))
(assert (forall ((var0 Addr) (var1 Heap)) (or (not (and (inv_main3 var1 var0) (is-O_TDLL (read var1 var0)))) (inv_main4 (write var1 var0 (O_TDLL (TDLL nullAddr (prev (getTDLL (read var1 var0))) (data (getTDLL (read var1 var0)))))) var0))))
(assert (forall ((var0 Addr) (var1 Addr) (var2 Addr) (var3 Addr) (var4 Heap)) (or (not (and (inv_main49 var4 var3 var2 var1 var0) (is-O_TDLL (read var4 var2)))) (inv_main50 (write var4 var2 (O_TDLL (TDLL var1 (prev (getTDLL (read var4 var2))) (data (getTDLL (read var4 var2)))))) var3 var2 var1 var0))))
(assert (forall ((var0 Addr) (var1 Addr) (var2 Heap)) (or (not (and (inv_main11 var2 var1 var0) (and (is-O_TDLL (read var2 var0)) (is-O_TDLL (read var2 (next (getTDLL (read var2 var0)))))))) (inv_main13 (write var2 (next (getTDLL (read var2 var0))) (O_TDLL (TDLL (next (getTDLL (read var2 (next (getTDLL (read var2 var0)))))) var0 (data (getTDLL (read var2 (next (getTDLL (read var2 var0))))))))) var1 var0))))
(assert (forall ((var0 Int) (var1 Addr) (var2 Addr) (var3 Addr) (var4 Heap) (var5 Int) (var6 Int) (var7 Int) (var8 Int) (var9 Addr) (var10 Addr) (var11 Addr) (var12 Heap)) (or (not (and (inv_main60 var12 var11 var10 var9 var8 var7) (and (or (not (= var6 2)) (= var5 1)) (and (and (is-O_TDLL (read var12 var10)) (is-O_TDLL (read var12 (next (getTDLL (read var12 var10)))))) (and (and (and (and (and (and (= var4 var12) (= var3 var11)) (= var2 var10)) (= var1 var9)) (= var6 var8)) (= var0 var7)) (= var5 (data (getTDLL (read var12 (next (getTDLL (read var12 var10)))))))))))) (inv_main63 var4 var3 var2 var1 var6 var5))))
(assert (forall ((var0 Addr) (var1 Addr) (var2 Addr) (var3 Heap) (var4 Int) (var5 Addr) (var6 Addr) (var7 Addr) (var8 Heap)) (or (not (and (inv_main56 var8 var7 var6 var5) (and (and (and (not (= var4 2)) (not (= var4 2))) (is-O_TDLL (read var8 var6))) (and (and (and (and (= var3 var8) (= var2 var7)) (= var1 var6)) (= var0 var5)) (= var4 (data (getTDLL (read var8 var6)))))))) (inv_main63 var3 var2 var1 var0 var4 0))))
(assert (forall ((var0 Addr) (var1 Heap) (var2 Addr) (var3 Addr) (var4 Addr) (var5 Addr) (var6 Heap)) (or (not (and (inv_main17 var6 var5 var4) (and (= var3 nullAddr) (and (and (= var2 nullAddr) (is-O_TDLL (read var6 var4))) (and (and (and (= var1 var6) (= var0 var5)) (= var3 var4)) (= var2 (next (getTDLL (read var6 var4))))))))) (inv_main31 var1 var0 var3))))
(assert (forall ((var0 Addr) (var1 Heap) (var2 Addr) (var3 Int) (var4 Addr) (var5 Addr) (var6 Addr) (var7 Heap)) (or (not (and (inv_main17 var7 var6 var5) (and (= var4 nullAddr) (and (= var3 0) (and (and (not (= var2 nullAddr)) (is-O_TDLL (read var7 var5))) (and (and (and (= var1 var7) (= var0 var6)) (= var4 var5)) (= var2 (next (getTDLL (read var7 var5)))))))))) (inv_main31 var1 var0 var4))))
(assert (forall ((var0 Int) (var1 Addr) (var2 Addr) (var3 Addr) (var4 Heap) (var5 Int) (var6 Int) (var7 Int) (var8 Int) (var9 Addr) (var10 Addr) (var11 Addr) (var12 Heap)) (or (not (and (inv_main60 var12 var11 var10 var9 var8 var7) (and (and (= var6 2) (not (= var5 1))) (and (and (is-O_TDLL (read var12 var10)) (is-O_TDLL (read var12 (next (getTDLL (read var12 var10)))))) (and (and (and (and (and (and (= var4 var12) (= var3 var11)) (= var2 var10)) (= var1 var9)) (= var6 var8)) (= var0 var7)) (= var5 (data (getTDLL (read var12 (next (getTDLL (read var12 var10)))))))))))) (inv_main65 var4 var3 var2 var1 var6 var5))))
(assert (forall ((var0 Addr) (var1 Addr) (var2 Addr) (var3 Heap) (var4 Int) (var5 Addr) (var6 Addr) (var7 Addr) (var8 Heap)) (or (not (and (inv_main56 var8 var7 var6 var5) (and (and (and (= var4 2) (not (= var4 2))) (is-O_TDLL (read var8 var6))) (and (and (and (and (= var3 var8) (= var2 var7)) (= var1 var6)) (= var0 var5)) (= var4 (data (getTDLL (read var8 var6)))))))) (inv_main65 var3 var2 var1 var0 var4 0))))
(assert (forall ((var0 TDLL) (var1 Heap)) (or (not (inv_main2 var1)) (inv_main3 (newHeap (alloc var1 (O_TDLL var0))) (newAddr (alloc var1 (O_TDLL var0)))))))
(assert (forall ((var0 Addr) (var1 Heap) (var2 Addr) (var3 Int) (var4 Addr) (var5 Addr) (var6 Addr) (var7 Heap)) (or (not (and (inv_main17 var7 var6 var5) (and (not (= var4 nullAddr)) (and (not (= var3 0)) (and (and (not (= var2 nullAddr)) (is-O_TDLL (read var7 var5))) (and (and (and (= var1 var7) (= var0 var6)) (= var4 var5)) (= var2 (next (getTDLL (read var7 var5)))))))))) (inv_main23 var1 var0 var4))))
(assert (forall ((var0 Addr) (var1 Addr) (var2 Heap)) (or (not (and (inv_main14 var2 var1 var0) (is-O_TDLL (read var2 var0)))) (inv_main16 (write var2 var0 (O_TDLL (TDLL nullAddr (prev (getTDLL (read var2 var0))) (data (getTDLL (read var2 var0)))))) var1 var0))))
(assert (forall ((var0 Addr) (var1 Addr) (var2 Heap)) (or (not (and (inv_main42 var2 var1 var0) (is-O_TDLL (read var2 var0)))) (inv_main44 (write var2 var0 (O_TDLL (TDLL nullAddr (prev (getTDLL (read var2 var0))) (data (getTDLL (read var2 var0)))))) var1 var0))))
(assert (forall ((var0 Addr) (var1 Addr) (var2 Heap)) (or (not (and (inv_main39 var2 var1 var0) (and (is-O_TDLL (read var2 var0)) (is-O_TDLL (read var2 (next (getTDLL (read var2 var0)))))))) (inv_main41 (write var2 (next (getTDLL (read var2 var0))) (O_TDLL (TDLL (next (getTDLL (read var2 (next (getTDLL (read var2 var0)))))) var0 (data (getTDLL (read var2 (next (getTDLL (read var2 var0))))))))) var1 var0))))
(assert (forall ((var0 TDLL) (var1 Addr) (var2 Addr) (var3 Heap) (var4 Int) (var5 Addr) (var6 Addr) (var7 Heap)) (or (not (and (inv_main16 var7 var6 var5) (and (and (not (= var4 0)) (is-O_TDLL (read var7 var5))) (and (and (= var3 (write var7 var5 (O_TDLL (TDLL (next (getTDLL (read var7 var5))) (prev (getTDLL (read var7 var5))) 0)))) (= var2 var6)) (= var1 var5))))) (inv_main12 (newHeap (alloc var3 (O_TDLL var0))) var2 var1 (newAddr (alloc var3 (O_TDLL var0)))))))
(assert (forall ((var0 TDLL) (var1 Addr) (var2 Heap) (var3 Int) (var4 Addr) (var5 Heap)) (or (not (and (inv_main5 var5 var4) (and (and (not (= var3 0)) (is-O_TDLL (read var5 var4))) (and (= var2 (write var5 var4 (O_TDLL (TDLL (next (getTDLL (read var5 var4))) (prev (getTDLL (read var5 var4))) 0)))) (= var1 var4))))) (inv_main12 (newHeap (alloc var2 (O_TDLL var0))) var1 var1 (newAddr (alloc var2 (O_TDLL var0)))))))
(assert (forall ((var0 Addr) (var1 Addr) (var2 Heap)) (or (not (and (inv_main29 var2 var1 var0) (is-O_TDLL (read var2 var0)))) (inv_main34 (write var2 var0 (O_TDLL (TDLL (next (getTDLL (read var2 var0))) (prev (getTDLL (read var2 var0))) 1))) var1 var0))))
(assert (forall ((var0 Addr) (var1 Addr) (var2 Addr) (var3 Heap)) (or (not (and (inv_main40 var3 var2 var1 var0) (is-O_TDLL (read var3 var1)))) (inv_main39 (write var3 var1 (O_TDLL (TDLL var0 (prev (getTDLL (read var3 var1))) (data (getTDLL (read var3 var1)))))) var2 var1))))
(assert (forall ((var0 Addr) (var1 Addr) (var2 Addr) (var3 Heap) (var4 Addr) (var5 Addr) (var6 Heap)) (or (not (and (inv_main13 var6 var5 var4) (and (is-O_TDLL (read var6 var4)) (and (and (and (= var3 var6) (= var2 var5)) (= var1 var4)) (= var0 (next (getTDLL (read var6 var4)))))))) (inv_main14 var3 var2 var0))))
(assert (forall ((var0 TDLL) (var1 Addr) (var2 Addr) (var3 Heap) (var4 Addr) (var5 Addr) (var6 Addr) (var7 Heap)) (or (not (and (inv_main34 var7 var6 var5) (and (and (= var4 nullAddr) (is-O_TDLL (read var7 var5))) (and (and (and (= var3 var7) (= var2 var6)) (= var1 var5)) (= var4 (next (getTDLL (read var7 var5)))))))) (inv_main40 (newHeap (alloc var3 (O_TDLL var0))) var2 var1 (newAddr (alloc var3 (O_TDLL var0)))))))
(assert (forall ((var0 Addr) (var1 Addr) (var2 Addr) (var3 Heap) (var4 Addr) (var5 Addr) (var6 Heap)) (or (not (and (inv_main23 var6 var5 var4) (and (is-O_TDLL (read var6 var4)) (and (and (and (= var3 var6) (= var2 var5)) (= var1 var4)) (= var0 (next (getTDLL (read var6 var4)))))))) (inv_main17 var3 var2 var0))))
(assert (forall ((var0 Addr) (var1 Addr) (var2 Heap) (var3 Int) (var4 Addr) (var5 Addr) (var6 Heap)) (or (not (and (inv_main16 var6 var5 var4) (and (and (= var3 0) (is-O_TDLL (read var6 var4))) (and (and (= var2 (write var6 var4 (O_TDLL (TDLL (next (getTDLL (read var6 var4))) (prev (getTDLL (read var6 var4))) 0)))) (= var1 var5)) (= var0 var4))))) (inv_main17 var2 var1 var1))))
(assert (forall ((var0 Addr) (var1 Heap) (var2 Int) (var3 Addr) (var4 Heap)) (or (not (and (inv_main5 var4 var3) (and (and (= var2 0) (is-O_TDLL (read var4 var3))) (and (= var1 (write var4 var3 (O_TDLL (TDLL (next (getTDLL (read var4 var3))) (prev (getTDLL (read var4 var3))) 0)))) (= var0 var3))))) (inv_main17 var1 var0 var0))))
(assert (forall ((var0 Addr) (var1 Heap) (var2 Addr) (var3 Int) (var4 Addr) (var5 Addr) (var6 Addr) (var7 Heap)) (or (not (and (inv_main17 var7 var6 var5) (and (= var4 nullAddr) (and (not (= var3 0)) (and (and (not (= var2 nullAddr)) (is-O_TDLL (read var7 var5))) (and (and (and (= var1 var7) (= var0 var6)) (= var4 var5)) (= var2 (next (getTDLL (read var7 var5)))))))))) (inv_main25 var1 var0 var4))))
(assert (forall ((var0 Addr) (var1 Addr) (var2 Addr) (var3 Heap) (var4 Addr) (var5 Addr) (var6 Heap)) (or (not (and (inv_main41 var6 var5 var4) (and (is-O_TDLL (read var6 var4)) (and (and (and (= var3 var6) (= var2 var5)) (= var1 var4)) (= var0 (next (getTDLL (read var6 var4)))))))) (inv_main42 var3 var2 var0))))
(assert (forall ((var0 Addr) (var1 Addr) (var2 Addr) (var3 Heap)) (or (not (and (inv_main54 var3 var2 var1 var0) (not (= var1 nullAddr)))) (inv_main56 var3 var2 var1 var0))))
(assert (forall ((var0 Addr) (var1 Heap) (var2 Addr) (var3 Addr) (var4 Addr) (var5 Addr) (var6 Heap)) (or (not (and (inv_main17 var6 var5 var4) (and (not (= var3 nullAddr)) (and (and (= var2 nullAddr) (is-O_TDLL (read var6 var4))) (and (and (and (= var1 var6) (= var0 var5)) (= var3 var4)) (= var2 (next (getTDLL (read var6 var4))))))))) (inv_main29 var1 var0 var3))))
(assert (forall ((var0 Addr) (var1 Heap) (var2 Addr) (var3 Int) (var4 Addr) (var5 Addr) (var6 Addr) (var7 Heap)) (or (not (and (inv_main17 var7 var6 var5) (and (not (= var4 nullAddr)) (and (= var3 0) (and (and (not (= var2 nullAddr)) (is-O_TDLL (read var7 var5))) (and (and (and (= var1 var7) (= var0 var6)) (= var4 var5)) (= var2 (next (getTDLL (read var7 var5)))))))))) (inv_main29 var1 var0 var4))))
(assert (forall ((var0 Addr) (var1 Addr) (var2 Addr) (var3 Heap) (var4 Int) (var5 Addr) (var6 Addr) (var7 Addr) (var8 Heap)) (or (not (and (inv_main56 var8 var7 var6 var5) (and (and (= var4 2) (is-O_TDLL (read var8 var6))) (and (and (and (and (= var3 var8) (= var2 var7)) (= var1 var6)) (= var0 var5)) (= var4 (data (getTDLL (read var8 var6)))))))) (inv_main60 var3 var2 var1 var0 var4 0))))
(assert (forall ((var0 Addr) (var1 Int) (var2 Int) (var3 Addr) (var4 Addr) (var5 Addr) (var6 Heap) (var7 Int) (var8 Int) (var9 Addr) (var10 Addr) (var11 Addr) (var12 Heap)) (or (not (and (inv_main69 var12 var11 var10 var9 var8 var7) (and (is-O_TDLL (read var12 var10)) (and (and (and (and (and (and (= var6 var12) (= var5 var11)) (= var4 var10)) (= var3 var9)) (= var2 var8)) (= var1 var7)) (= var0 (next (getTDLL (read var12 var10)))))))) (inv_main68 var6 var5 var0 var3 var2 var1))))
(assert (forall ((var0 Int) (var1 Int) (var2 Addr) (var3 Addr) (var4 Addr) (var5 Heap) (var6 Int) (var7 Int) (var8 Int) (var9 Addr) (var10 Addr) (var11 Addr) (var12 Heap)) (or (not (and (inv_main63 var12 var11 var10 var9 var8 var7) (and (and (not (= var6 2)) (is-O_TDLL (read var12 var10))) (and (and (and (and (and (and (= var5 var12) (= var4 var11)) (= var3 var10)) (= var2 var9)) (= var1 var8)) (= var0 var7)) (= var6 (data (getTDLL (read var12 var10)))))))) (inv_main68 var5 var4 var3 var2 var1 var0))))
(assert (forall ((var0 Addr) (var1 Heap)) (not (and (inv_main3 var1 var0) (not (is-O_TDLL (read var1 var0)))))))
(assert (forall ((var0 Addr) (var1 Heap)) (not (and (inv_main4 var1 var0) (not (is-O_TDLL (read var1 var0)))))))
(assert (forall ((var0 Addr) (var1 Heap)) (not (and (inv_main5 var1 var0) (not (is-O_TDLL (read var1 var0)))))))
(assert (forall ((var0 Addr) (var1 Addr) (var2 Addr) (var3 Heap)) (not (and (inv_main12 var3 var2 var1 var0) (not (is-O_TDLL (read var3 var1)))))))
(assert (forall ((var0 Addr) (var1 Addr) (var2 Heap)) (not (and (inv_main11 var2 var1 var0) (not (is-O_TDLL (read var2 var0)))))))
(assert (forall ((var0 Addr) (var1 Addr) (var2 Heap)) (not (and (inv_main11 var2 var1 var0) (and (is-O_TDLL (read var2 var0)) (not (is-O_TDLL (read var2 (next (getTDLL (read var2 var0)))))))))))
(assert (forall ((var0 Addr) (var1 Addr) (var2 Heap)) (not (and (inv_main13 var2 var1 var0) (not (is-O_TDLL (read var2 var0)))))))
(assert (forall ((var0 Addr) (var1 Addr) (var2 Heap)) (not (and (inv_main14 var2 var1 var0) (not (is-O_TDLL (read var2 var0)))))))
(assert (forall ((var0 Addr) (var1 Addr) (var2 Heap)) (not (and (inv_main16 var2 var1 var0) (not (is-O_TDLL (read var2 var0)))))))
(assert (forall ((var0 Addr) (var1 Addr) (var2 Heap)) (not (and (inv_main17 var2 var1 var0) (not (is-O_TDLL (read var2 var0)))))))
(assert (forall ((var0 Addr) (var1 Addr) (var2 Heap)) (not (inv_main25 var2 var1 var0))))
(assert (forall ((var0 Addr) (var1 Addr) (var2 Heap)) (not (and (inv_main23 var2 var1 var0) (not (is-O_TDLL (read var2 var0)))))))
(assert (forall ((var0 Addr) (var1 Addr) (var2 Heap)) (not (inv_main31 var2 var1 var0))))
(assert (forall ((var0 Addr) (var1 Addr) (var2 Heap)) (not (and (inv_main29 var2 var1 var0) (not (is-O_TDLL (read var2 var0)))))))
(assert (forall ((var0 Addr) (var1 Addr) (var2 Heap)) (not (and (inv_main34 var2 var1 var0) (not (is-O_TDLL (read var2 var0)))))))
(assert (forall ((var0 Addr) (var1 Addr) (var2 Addr) (var3 Heap)) (not (and (inv_main40 var3 var2 var1 var0) (not (is-O_TDLL (read var3 var1)))))))
(assert (forall ((var0 Addr) (var1 Addr) (var2 Heap)) (not (and (inv_main39 var2 var1 var0) (not (is-O_TDLL (read var2 var0)))))))
(assert (forall ((var0 Addr) (var1 Addr) (var2 Heap)) (not (and (inv_main39 var2 var1 var0) (and (is-O_TDLL (read var2 var0)) (not (is-O_TDLL (read var2 (next (getTDLL (read var2 var0)))))))))))
(assert (forall ((var0 Addr) (var1 Addr) (var2 Heap)) (not (and (inv_main41 var2 var1 var0) (not (is-O_TDLL (read var2 var0)))))))
(assert (forall ((var0 Addr) (var1 Addr) (var2 Heap)) (not (and (inv_main42 var2 var1 var0) (not (is-O_TDLL (read var2 var0)))))))
(assert (forall ((var0 Addr) (var1 Addr) (var2 Heap)) (not (and (inv_main44 var2 var1 var0) (not (is-O_TDLL (read var2 var0)))))))
(assert (forall ((var0 Addr) (var1 Addr) (var2 Heap)) (not (and (inv_main37 var2 var1 var0) (not (is-O_TDLL (read var2 var0)))))))
(assert (forall ((var0 Addr) (var1 Addr) (var2 Heap)) (not (and (inv_main37 var2 var1 var0) (and (is-O_TDLL (read var2 var0)) (not (is-O_TDLL (read var2 (next (getTDLL (read var2 var0)))))))))))
(assert (forall ((var0 Addr) (var1 Addr) (var2 Addr) (var3 Heap)) (not (and (inv_main48 var3 var2 var1 var0) (not (is-O_TDLL (read var3 var1)))))))
(assert (forall ((var0 Addr) (var1 Addr) (var2 Addr) (var3 Addr) (var4 Heap)) (not (and (inv_main49 var4 var3 var2 var1 var0) (not (is-O_TDLL (read var4 var2)))))))
(assert (forall ((var0 Addr) (var1 Addr) (var2 Addr) (var3 Addr) (var4 Heap)) (not (and (inv_main50 var4 var3 var2 var1 var0) (not (is-O_TDLL (read var4 var2)))))))
(assert (forall ((var0 Addr) (var1 Addr) (var2 Addr) (var3 Heap)) (not (and (inv_main56 var3 var2 var1 var0) (not (is-O_TDLL (read var3 var1)))))))
(assert (forall ((var0 Int) (var1 Int) (var2 Addr) (var3 Addr) (var4 Addr) (var5 Heap)) (not (and (inv_main60 var5 var4 var3 var2 var1 var0) (not (is-O_TDLL (read var5 var3)))))))
(assert (forall ((var0 Int) (var1 Int) (var2 Addr) (var3 Addr) (var4 Addr) (var5 Heap)) (not (and (inv_main60 var5 var4 var3 var2 var1 var0) (and (is-O_TDLL (read var5 var3)) (not (is-O_TDLL (read var5 (next (getTDLL (read var5 var3)))))))))))
(assert (forall ((var0 Int) (var1 Int) (var2 Addr) (var3 Addr) (var4 Addr) (var5 Heap)) (not (inv_main65 var5 var4 var3 var2 var1 var0))))
(assert (forall ((var0 Int) (var1 Int) (var2 Addr) (var3 Addr) (var4 Addr) (var5 Heap)) (not (and (inv_main63 var5 var4 var3 var2 var1 var0) (not (is-O_TDLL (read var5 var3)))))))
(assert (forall ((var0 Int) (var1 Int) (var2 Addr) (var3 Addr) (var4 Addr) (var5 Heap)) (not (and (inv_main69 var5 var4 var3 var2 var1 var0) (not (is-O_TDLL (read var5 var3)))))))
(assert (forall ((var0 Int) (var1 Int) (var2 Addr) (var3 Addr) (var4 Addr) (var5 Heap)) (not (and (inv_main68 var5 var4 var3 var2 var1 var0) (not (is-O_TDLL (read var5 var3)))))))
(assert (forall ((var0 Addr) (var1 Addr) (var2 Addr) (var3 Heap)) (not (and (inv_main77 var3 var2 var1 var0) (not (is-O_TDLL (read var3 var1)))))))
(check-sat)
